NAME: X162-FSMD
COMMENT: Generated by Uchoa, Pecin, Pessoa, Poggi, Subramanian, and Vidal (2013). Modified by Sadykov, Pessoa and Uchoa (2017). Converted to PyVRP's VRPLIB dialect.
TYPE: HFVRP
DIMENSION: 162
VEHICLES: 1449
EDGE_WEIGHT_TYPE: EUC_2D
NODE_COORD_SECTION
1	500	500
2	300	71
3	434	4
4	257	798
5	718	17
6	879	206
7	929	330
8	353	793
9	389	540
10	202	55
11	417	253
12	921	572
13	94	788
14	870	327
15	281	124
16	411	288
17	882	116
18	307	240
19	359	935
20	352	858
21	502	776
22	269	33
23	440	814
24	850	461
25	909	404
26	339	458
27	767	535
28	86	47
29	758	532
30	426	282
31	534	10
32	826	830
33	911	79
34	270	791
35	391	794
36	908	787
37	929	858
38	938	281
39	941	579
40	752	162
41	579	68
42	323	570
43	238	700
44	853	970
45	329	805
46	651	486
47	291	631
48	286	481
49	855	547
50	972	378
51	561	490
52	205	741
53	528	672
54	664	605
55	462	532
56	340	54
57	929	941
58	936	46
59	864	654
60	501	495
61	339	10
62	324	595
63	585	893
64	73	401
65	244	926
66	190	659
67	900	929
68	525	878
69	832	622
70	228	662
71	36	578
72	897	292
73	492	426
74	958	546
75	674	303
76	312	781
77	320	557
78	226	264
79	446	702
80	470	746
81	613	620
82	710	289
83	439	15
84	148	352
85	371	115
86	414	108
87	693	626
88	703	31
89	798	932
90	294	172
91	710	588
92	701	370
93	620	270
94	632	147
95	909	889
96	745	985
97	771	946
98	248	178
99	265	408
100	808	699
101	867	883
102	725	58
103	688	875
104	546	149
105	108	303
106	401	225
107	824	878
108	336	115
109	683	219
110	428	19
111	407	68
112	691	745
113	624	46
114	6	539
115	652	923
116	513	262
117	639	753
118	112	114
119	478	46
120	440	219
121	780	270
122	426	121
123	354	105
124	885	963
125	403	32
126	617	230
127	370	169
128	403	386
129	392	52
130	769	967
131	811	683
132	968	26
133	644	82
134	339	122
135	413	22
136	459	198
137	643	391
138	733	200
139	348	158
140	361	229
141	726	749
142	480	250
143	837	983
144	384	134
145	427	197
146	731	579
147	741	135
148	442	105
149	421	23
150	315	178
151	676	530
152	729	107
153	668	471
154	391	79
155	715	728
156	592	325
157	542	296
158	607	43
159	727	283
160	449	102
161	394	101
162	223	283
DEMAND_SECTION
1	0
2	60
3	88
4	74
5	56
6	95
7	95
8	83
9	94
10	93
11	79
12	61
13	83
14	68
15	86
16	96
17	75
18	67
19	74
20	92
21	71
22	92
23	74
24	82
25	88
26	95
27	69
28	100
29	91
30	83
31	78
32	63
33	88
34	84
35	59
36	77
37	89
38	74
39	74
40	85
41	71
42	72
43	61
44	99
45	65
46	88
47	75
48	82
49	100
50	96
51	89
52	97
53	52
54	57
55	54
56	64
57	78
58	67
59	80
60	85
61	83
62	54
63	68
64	80
65	76
66	100
67	68
68	84
69	71
70	65
71	86
72	53
73	57
74	83
75	62
76	95
77	84
78	63
79	59
80	98
81	100
82	57
83	66
84	79
85	66
86	87
87	53
88	99
89	72
90	87
91	58
92	78
93	68
94	60
95	66
96	86
97	61
98	91
99	64
100	90
101	69
102	73
103	55
104	59
105	94
106	58
107	82
108	96
109	51
110	52
111	65
112	61
113	65
114	85
115	56
116	83
117	76
118	89
119	100
120	56
121	60
122	89
123	57
124	72
125	59
126	59
127	99
128	51
129	80
130	89
131	100
132	91
133	96
134	57
135	59
136	74
137	69
138	81
139	73
140	96
141	83
142	63
143	68
144	96
145	86
146	62
147	62
148	54
149	98
150	70
151	69
152	57
153	81
154	53
155	78
156	64
157	72
158	59
159	92
160	96
161	73
162	78
CAPACITY_SECTION
1	408
2	408
3	408
4	408
5	408
6	408
7	408
8	408
9	408
10	408
11	408
12	408
13	408
14	408
15	408
16	408
17	408
18	408
19	408
20	408
21	408
22	408
23	408
24	408
25	408
26	408
27	408
28	408
29	408
30	408
31	408
32	408
33	408
34	408
35	408
36	408
37	408
38	408
39	408
40	408
41	408
42	408
43	408
44	408
45	408
46	408
47	408
48	408
49	408
50	408
51	408
52	408
53	408
54	408
55	408
56	408
57	408
58	408
59	408
60	408
61	408
62	408
63	408
64	408
65	408
66	408
67	408
68	408
69	408
70	408
71	408
72	408
73	408
74	408
75	408
76	408
77	408
78	408
79	408
80	408
81	408
82	408
83	408
84	408
85	408
86	408
87	408
88	408
89	408
90	408
91	408
92	408
93	408
94	408
95	408
96	408
97	408
98	408
99	408
100	408
101	408
102	408
103	408
104	408
105	408
106	408
107	408
108	408
109	408
110	408
111	408
112	408
113	408
114	408
115	408
116	408
117	408
118	408
119	408
120	408
121	408
122	408
123	408
124	408
125	408
126	408
127	408
128	408
129	408
130	408
131	408
132	408
133	408
134	408
135	408
136	408
137	408
138	408
139	408
140	408
141	408
142	408
143	408
144	408
145	408
146	408
147	408
148	408
149	408
150	408
151	408
152	408
153	408
154	408
155	408
156	408
157	408
158	408
159	408
160	408
161	408
162	510
163	510
164	510
165	510
166	510
167	510
168	510
169	510
170	510
171	510
172	510
173	510
174	510
175	510
176	510
177	510
178	510
179	510
180	510
181	510
182	510
183	510
184	510
185	510
186	510
187	510
188	510
189	510
190	510
191	510
192	510
193	510
194	510
195	510
196	510
197	510
198	510
199	510
200	510
201	510
202	510
203	510
204	510
205	510
206	510
207	510
208	510
209	510
210	510
211	510
212	510
213	510
214	510
215	510
216	510
217	510
218	510
219	510
220	510
221	510
222	510
223	510
224	510
225	510
226	510
227	510
228	510
229	510
230	510
231	510
232	510
233	510
234	510
235	510
236	510
237	510
238	510
239	510
240	510
241	510
242	510
243	510
244	510
245	510
246	510
247	510
248	510
249	510
250	510
251	510
252	510
253	510
254	510
255	510
256	510
257	510
258	510
259	510
260	510
261	510
262	510
263	510
264	510
265	510
266	510
267	510
268	510
269	510
270	510
271	510
272	510
273	510
274	510
275	510
276	510
277	510
278	510
279	510
280	510
281	510
282	510
283	510
284	510
285	510
286	510
287	510
288	510
289	510
290	510
291	510
292	510
293	510
294	510
295	510
296	510
297	510
298	510
299	510
300	510
301	510
302	510
303	510
304	510
305	510
306	510
307	510
308	510
309	510
310	510
311	510
312	510
313	510
314	510
315	510
316	510
317	510
318	510
319	510
320	510
321	510
322	510
323	638
324	638
325	638
326	638
327	638
328	638
329	638
330	638
331	638
332	638
333	638
334	638
335	638
336	638
337	638
338	638
339	638
340	638
341	638
342	638
343	638
344	638
345	638
346	638
347	638
348	638
349	638
350	638
351	638
352	638
353	638
354	638
355	638
356	638
357	638
358	638
359	638
360	638
361	638
362	638
363	638
364	638
365	638
366	638
367	638
368	638
369	638
370	638
371	638
372	638
373	638
374	638
375	638
376	638
377	638
378	638
379	638
380	638
381	638
382	638
383	638
384	638
385	638
386	638
387	638
388	638
389	638
390	638
391	638
392	638
393	638
394	638
395	638
396	638
397	638
398	638
399	638
400	638
401	638
402	638
403	638
404	638
405	638
406	638
407	638
408	638
409	638
410	638
411	638
412	638
413	638
414	638
415	638
416	638
417	638
418	638
419	638
420	638
421	638
422	638
423	638
424	638
425	638
426	638
427	638
428	638
429	638
430	638
431	638
432	638
433	638
434	638
435	638
436	638
437	638
438	638
439	638
440	638
441	638
442	638
443	638
444	638
445	638
446	638
447	638
448	638
449	638
450	638
451	638
452	638
453	638
454	638
455	638
456	638
457	638
458	638
459	638
460	638
461	638
462	638
463	638
464	638
465	638
466	638
467	638
468	638
469	638
470	638
471	638
472	638
473	638
474	638
475	638
476	638
477	638
478	638
479	638
480	638
481	638
482	638
483	638
484	798
485	798
486	798
487	798
488	798
489	798
490	798
491	798
492	798
493	798
494	798
495	798
496	798
497	798
498	798
499	798
500	798
501	798
502	798
503	798
504	798
505	798
506	798
507	798
508	798
509	798
510	798
511	798
512	798
513	798
514	798
515	798
516	798
517	798
518	798
519	798
520	798
521	798
522	798
523	798
524	798
525	798
526	798
527	798
528	798
529	798
530	798
531	798
532	798
533	798
534	798
535	798
536	798
537	798
538	798
539	798
540	798
541	798
542	798
543	798
544	798
545	798
546	798
547	798
548	798
549	798
550	798
551	798
552	798
553	798
554	798
555	798
556	798
557	798
558	798
559	798
560	798
561	798
562	798
563	798
564	798
565	798
566	798
567	798
568	798
569	798
570	798
571	798
572	798
573	798
574	798
575	798
576	798
577	798
578	798
579	798
580	798
581	798
582	798
583	798
584	798
585	798
586	798
587	798
588	798
589	798
590	798
591	798
592	798
593	798
594	798
595	798
596	798
597	798
598	798
599	798
600	798
601	798
602	798
603	798
604	798
605	798
606	798
607	798
608	798
609	798
610	798
611	798
612	798
613	798
614	798
615	798
616	798
617	798
618	798
619	798
620	798
621	798
622	798
623	798
624	798
625	798
626	798
627	798
628	798
629	798
630	798
631	798
632	798
633	798
634	798
635	798
636	798
637	798
638	798
639	798
640	798
641	798
642	798
643	798
644	798
645	999
646	999
647	999
648	999
649	999
650	999
651	999
652	999
653	999
654	999
655	999
656	999
657	999
658	999
659	999
660	999
661	999
662	999
663	999
664	999
665	999
666	999
667	999
668	999
669	999
670	999
671	999
672	999
673	999
674	999
675	999
676	999
677	999
678	999
679	999
680	999
681	999
682	999
683	999
684	999
685	999
686	999
687	999
688	999
689	999
690	999
691	999
692	999
693	999
694	999
695	999
696	999
697	999
698	999
699	999
700	999
701	999
702	999
703	999
704	999
705	999
706	999
707	999
708	999
709	999
710	999
711	999
712	999
713	999
714	999
715	999
716	999
717	999
718	999
719	999
720	999
721	999
722	999
723	999
724	999
725	999
726	999
727	999
728	999
729	999
730	999
731	999
732	999
733	999
734	999
735	999
736	999
737	999
738	999
739	999
740	999
741	999
742	999
743	999
744	999
745	999
746	999
747	999
748	999
749	999
750	999
751	999
752	999
753	999
754	999
755	999
756	999
757	999
758	999
759	999
760	999
761	999
762	999
763	999
764	999
765	999
766	999
767	999
768	999
769	999
770	999
771	999
772	999
773	999
774	999
775	999
776	999
777	999
778	999
779	999
780	999
781	999
782	999
783	999
784	999
785	999
786	999
787	999
788	999
789	999
790	999
791	999
792	999
793	999
794	999
795	999
796	999
797	999
798	999
799	999
800	999
801	999
802	999
803	999
804	999
805	999
806	1249
807	1249
808	1249
809	1249
810	1249
811	1249
812	1249
813	1249
814	1249
815	1249
816	1249
817	1249
818	1249
819	1249
820	1249
821	1249
822	1249
823	1249
824	1249
825	1249
826	1249
827	1249
828	1249
829	1249
830	1249
831	1249
832	1249
833	1249
834	1249
835	1249
836	1249
837	1249
838	1249
839	1249
840	1249
841	1249
842	1249
843	1249
844	1249
845	1249
846	1249
847	1249
848	1249
849	1249
850	1249
851	1249
852	1249
853	1249
854	1249
855	1249
856	1249
857	1249
858	1249
859	1249
860	1249
861	1249
862	1249
863	1249
864	1249
865	1249
866	1249
867	1249
868	1249
869	1249
870	1249
871	1249
872	1249
873	1249
874	1249
875	1249
876	1249
877	1249
878	1249
879	1249
880	1249
881	1249
882	1249
883	1249
884	1249
885	1249
886	1249
887	1249
888	1249
889	1249
890	1249
891	1249
892	1249
893	1249
894	1249
895	1249
896	1249
897	1249
898	1249
899	1249
900	1249
901	1249
902	1249
903	1249
904	1249
905	1249
906	1249
907	1249
908	1249
909	1249
910	1249
911	1249
912	1249
913	1249
914	1249
915	1249
916	1249
917	1249
918	1249
919	1249
920	1249
921	1249
922	1249
923	1249
924	1249
925	1249
926	1249
927	1249
928	1249
929	1249
930	1249
931	1249
932	1249
933	1249
934	1249
935	1249
936	1249
937	1249
938	1249
939	1249
940	1249
941	1249
942	1249
943	1249
944	1249
945	1249
946	1249
947	1249
948	1249
949	1249
950	1249
951	1249
952	1249
953	1249
954	1249
955	1249
956	1249
957	1249
958	1249
959	1249
960	1249
961	1249
962	1249
963	1249
964	1249
965	1249
966	1249
967	1563
968	1563
969	1563
970	1563
971	1563
972	1563
973	1563
974	1563
975	1563
976	1563
977	1563
978	1563
979	1563
980	1563
981	1563
982	1563
983	1563
984	1563
985	1563
986	1563
987	1563
988	1563
989	1563
990	1563
991	1563
992	1563
993	1563
994	1563
995	1563
996	1563
997	1563
998	1563
999	1563
1000	1563
1001	1563
1002	1563
1003	1563
1004	1563
1005	1563
1006	1563
1007	1563
1008	1563
1009	1563
1010	1563
1011	1563
1012	1563
1013	1563
1014	1563
1015	1563
1016	1563
1017	1563
1018	1563
1019	1563
1020	1563
1021	1563
1022	1563
1023	1563
1024	1563
1025	1563
1026	1563
1027	1563
1028	1563
1029	1563
1030	1563
1031	1563
1032	1563
1033	1563
1034	1563
1035	1563
1036	1563
1037	1563
1038	1563
1039	1563
1040	1563
1041	1563
1042	1563
1043	1563
1044	1563
1045	1563
1046	1563
1047	1563
1048	1563
1049	1563
1050	1563
1051	1563
1052	1563
1053	1563
1054	1563
1055	1563
1056	1563
1057	1563
1058	1563
1059	1563
1060	1563
1061	1563
1062	1563
1063	1563
1064	1563
1065	1563
1066	1563
1067	1563
1068	1563
1069	1563
1070	1563
1071	1563
1072	1563
1073	1563
1074	1563
1075	1563
1076	1563
1077	1563
1078	1563
1079	1563
1080	1563
1081	1563
1082	1563
1083	1563
1084	1563
1085	1563
1086	1563
1087	1563
1088	1563
1089	1563
1090	1563
1091	1563
1092	1563
1093	1563
1094	1563
1095	1563
1096	1563
1097	1563
1098	1563
1099	1563
1100	1563
1101	1563
1102	1563
1103	1563
1104	1563
1105	1563
1106	1563
1107	1563
1108	1563
1109	1563
1110	1563
1111	1563
1112	1563
1113	1563
1114	1563
1115	1563
1116	1563
1117	1563
1118	1563
1119	1563
1120	1563
1121	1563
1122	1563
1123	1563
1124	1563
1125	1563
1126	1563
1127	1563
1128	1955
1129	1955
1130	1955
1131	1955
1132	1955
1133	1955
1134	1955
1135	1955
1136	1955
1137	1955
1138	1955
1139	1955
1140	1955
1141	1955
1142	1955
1143	1955
1144	1955
1145	1955
1146	1955
1147	1955
1148	1955
1149	1955
1150	1955
1151	1955
1152	1955
1153	1955
1154	1955
1155	1955
1156	1955
1157	1955
1158	1955
1159	1955
1160	1955
1161	1955
1162	1955
1163	1955
1164	1955
1165	1955
1166	1955
1167	1955
1168	1955
1169	1955
1170	1955
1171	1955
1172	1955
1173	1955
1174	1955
1175	1955
1176	1955
1177	1955
1178	1955
1179	1955
1180	1955
1181	1955
1182	1955
1183	1955
1184	1955
1185	1955
1186	1955
1187	1955
1188	1955
1189	1955
1190	1955
1191	1955
1192	1955
1193	1955
1194	1955
1195	1955
1196	1955
1197	1955
1198	1955
1199	1955
1200	1955
1201	1955
1202	1955
1203	1955
1204	1955
1205	1955
1206	1955
1207	1955
1208	1955
1209	1955
1210	1955
1211	1955
1212	1955
1213	1955
1214	1955
1215	1955
1216	1955
1217	1955
1218	1955
1219	1955
1220	1955
1221	1955
1222	1955
1223	1955
1224	1955
1225	1955
1226	1955
1227	1955
1228	1955
1229	1955
1230	1955
1231	1955
1232	1955
1233	1955
1234	1955
1235	1955
1236	1955
1237	1955
1238	1955
1239	1955
1240	1955
1241	1955
1242	1955
1243	1955
1244	1955
1245	1955
1246	1955
1247	1955
1248	1955
1249	1955
1250	1955
1251	1955
1252	1955
1253	1955
1254	1955
1255	1955
1256	1955
1257	1955
1258	1955
1259	1955
1260	1955
1261	1955
1262	1955
1263	1955
1264	1955
1265	1955
1266	1955
1267	1955
1268	1955
1269	1955
1270	1955
1271	1955
1272	1955
1273	1955
1274	1955
1275	1955
1276	1955
1277	1955
1278	1955
1279	1955
1280	1955
1281	1955
1282	1955
1283	1955
1284	1955
1285	1955
1286	1955
1287	1955
1288	1955
1289	2446
1290	2446
1291	2446
1292	2446
1293	2446
1294	2446
1295	2446
1296	2446
1297	2446
1298	2446
1299	2446
1300	2446
1301	2446
1302	2446
1303	2446
1304	2446
1305	2446
1306	2446
1307	2446
1308	2446
1309	2446
1310	2446
1311	2446
1312	2446
1313	2446
1314	2446
1315	2446
1316	2446
1317	2446
1318	2446
1319	2446
1320	2446
1321	2446
1322	2446
1323	2446
1324	2446
1325	2446
1326	2446
1327	2446
1328	2446
1329	2446
1330	2446
1331	2446
1332	2446
1333	2446
1334	2446
1335	2446
1336	2446
1337	2446
1338	2446
1339	2446
1340	2446
1341	2446
1342	2446
1343	2446
1344	2446
1345	2446
1346	2446
1347	2446
1348	2446
1349	2446
1350	2446
1351	2446
1352	2446
1353	2446
1354	2446
1355	2446
1356	2446
1357	2446
1358	2446
1359	2446
1360	2446
1361	2446
1362	2446
1363	2446
1364	2446
1365	2446
1366	2446
1367	2446
1368	2446
1369	2446
1370	2446
1371	2446
1372	2446
1373	2446
1374	2446
1375	2446
1376	2446
1377	2446
1378	2446
1379	2446
1380	2446
1381	2446
1382	2446
1383	2446
1384	2446
1385	2446
1386	2446
1387	2446
1388	2446
1389	2446
1390	2446
1391	2446
1392	2446
1393	2446
1394	2446
1395	2446
1396	2446
1397	2446
1398	2446
1399	2446
1400	2446
1401	2446
1402	2446
1403	2446
1404	2446
1405	2446
1406	2446
1407	2446
1408	2446
1409	2446
1410	2446
1411	2446
1412	2446
1413	2446
1414	2446
1415	2446
1416	2446
1417	2446
1418	2446
1419	2446
1420	2446
1421	2446
1422	2446
1423	2446
1424	2446
1425	2446
1426	2446
1427	2446
1428	2446
1429	2446
1430	2446
1431	2446
1432	2446
1433	2446
1434	2446
1435	2446
1436	2446
1437	2446
1438	2446
1439	2446
1440	2446
1441	2446
1442	2446
1443	2446
1444	2446
1445	2446
1446	2446
1447	2446
1448	2446
1449	2446
VEHICLES_UNIT_DISTANCE_COST_SECTION
1	41
2	41
3	41
4	41
5	41
6	41
7	41
8	41
9	41
10	41
11	41
12	41
13	41
14	41
15	41
16	41
17	41
18	41
19	41
20	41
21	41
22	41
23	41
24	41
25	41
26	41
27	41
28	41
29	41
30	41
31	41
32	41
33	41
34	41
35	41
36	41
37	41
38	41
39	41
40	41
41	41
42	41
43	41
44	41
45	41
46	41
47	41
48	41
49	41
50	41
51	41
52	41
53	41
54	41
55	41
56	41
57	41
58	41
59	41
60	41
61	41
62	41
63	41
64	41
65	41
66	41
67	41
68	41
69	41
70	41
71	41
72	41
73	41
74	41
75	41
76	41
77	41
78	41
79	41
80	41
81	41
82	41
83	41
84	41
85	41
86	41
87	41
88	41
89	41
90	41
91	41
92	41
93	41
94	41
95	41
96	41
97	41
98	41
99	41
100	41
101	41
102	41
103	41
104	41
105	41
106	41
107	41
108	41
109	41
110	41
111	41
112	41
113	41
114	41
115	41
116	41
117	41
118	41
119	41
120	41
121	41
122	41
123	41
124	41
125	41
126	41
127	41
128	41
129	41
130	41
131	41
132	41
133	41
134	41
135	41
136	41
137	41
138	41
139	41
140	41
141	41
142	41
143	41
144	41
145	41
146	41
147	41
148	41
149	41
150	41
151	41
152	41
153	41
154	41
155	41
156	41
157	41
158	41
159	41
160	41
161	41
162	51
163	51
164	51
165	51
166	51
167	51
168	51
169	51
170	51
171	51
172	51
173	51
174	51
175	51
176	51
177	51
178	51
179	51
180	51
181	51
182	51
183	51
184	51
185	51
186	51
187	51
188	51
189	51
190	51
191	51
192	51
193	51
194	51
195	51
196	51
197	51
198	51
199	51
200	51
201	51
202	51
203	51
204	51
205	51
206	51
207	51
208	51
209	51
210	51
211	51
212	51
213	51
214	51
215	51
216	51
217	51
218	51
219	51
220	51
221	51
222	51
223	51
224	51
225	51
226	51
227	51
228	51
229	51
230	51
231	51
232	51
233	51
234	51
235	51
236	51
237	51
238	51
239	51
240	51
241	51
242	51
243	51
244	51
245	51
246	51
247	51
248	51
249	51
250	51
251	51
252	51
253	51
254	51
255	51
256	51
257	51
258	51
259	51
260	51
261	51
262	51
263	51
264	51
265	51
266	51
267	51
268	51
269	51
270	51
271	51
272	51
273	51
274	51
275	51
276	51
277	51
278	51
279	51
280	51
281	51
282	51
283	51
284	51
285	51
286	51
287	51
288	51
289	51
290	51
291	51
292	51
293	51
294	51
295	51
296	51
297	51
298	51
299	51
300	51
301	51
302	51
303	51
304	51
305	51
306	51
307	51
308	51
309	51
310	51
311	51
312	51
313	51
314	51
315	51
316	51
317	51
318	51
319	51
320	51
321	51
322	51
323	64
324	64
325	64
326	64
327	64
328	64
329	64
330	64
331	64
332	64
333	64
334	64
335	64
336	64
337	64
338	64
339	64
340	64
341	64
342	64
343	64
344	64
345	64
346	64
347	64
348	64
349	64
350	64
351	64
352	64
353	64
354	64
355	64
356	64
357	64
358	64
359	64
360	64
361	64
362	64
363	64
364	64
365	64
366	64
367	64
368	64
369	64
370	64
371	64
372	64
373	64
374	64
375	64
376	64
377	64
378	64
379	64
380	64
381	64
382	64
383	64
384	64
385	64
386	64
387	64
388	64
389	64
390	64
391	64
392	64
393	64
394	64
395	64
396	64
397	64
398	64
399	64
400	64
401	64
402	64
403	64
404	64
405	64
406	64
407	64
408	64
409	64
410	64
411	64
412	64
413	64
414	64
415	64
416	64
417	64
418	64
419	64
420	64
421	64
422	64
423	64
424	64
425	64
426	64
427	64
428	64
429	64
430	64
431	64
432	64
433	64
434	64
435	64
436	64
437	64
438	64
439	64
440	64
441	64
442	64
443	64
444	64
445	64
446	64
447	64
448	64
449	64
450	64
451	64
452	64
453	64
454	64
455	64
456	64
457	64
458	64
459	64
460	64
461	64
462	64
463	64
464	64
465	64
466	64
467	64
468	64
469	64
470	64
471	64
472	64
473	64
474	64
475	64
476	64
477	64
478	64
479	64
480	64
481	64
482	64
483	64
484	80
485	80
486	80
487	80
488	80
489	80
490	80
491	80
492	80
493	80
494	80
495	80
496	80
497	80
498	80
499	80
500	80
501	80
502	80
503	80
504	80
505	80
506	80
507	80
508	80
509	80
510	80
511	80
512	80
513	80
514	80
515	80
516	80
517	80
518	80
519	80
520	80
521	80
522	80
523	80
524	80
525	80
526	80
527	80
528	80
529	80
530	80
531	80
532	80
533	80
534	80
535	80
536	80
537	80
538	80
539	80
540	80
541	80
542	80
543	80
544	80
545	80
546	80
547	80
548	80
549	80
550	80
551	80
552	80
553	80
554	80
555	80
556	80
557	80
558	80
559	80
560	80
561	80
562	80
563	80
564	80
565	80
566	80
567	80
568	80
569	80
570	80
571	80
572	80
573	80
574	80
575	80
576	80
577	80
578	80
579	80
580	80
581	80
582	80
583	80
584	80
585	80
586	80
587	80
588	80
589	80
590	80
591	80
592	80
593	80
594	80
595	80
596	80
597	80
598	80
599	80
600	80
601	80
602	80
603	80
604	80
605	80
606	80
607	80
608	80
609	80
610	80
611	80
612	80
613	80
614	80
615	80
616	80
617	80
618	80
619	80
620	80
621	80
622	80
623	80
624	80
625	80
626	80
627	80
628	80
629	80
630	80
631	80
632	80
633	80
634	80
635	80
636	80
637	80
638	80
639	80
640	80
641	80
642	80
643	80
644	80
645	100
646	100
647	100
648	100
649	100
650	100
651	100
652	100
653	100
654	100
655	100
656	100
657	100
658	100
659	100
660	100
661	100
662	100
663	100
664	100
665	100
666	100
667	100
668	100
669	100
670	100
671	100
672	100
673	100
674	100
675	100
676	100
677	100
678	100
679	100
680	100
681	100
682	100
683	100
684	100
685	100
686	100
687	100
688	100
689	100
690	100
691	100
692	100
693	100
694	100
695	100
696	100
697	100
698	100
699	100
700	100
701	100
702	100
703	100
704	100
705	100
706	100
707	100
708	100
709	100
710	100
711	100
712	100
713	100
714	100
715	100
716	100
717	100
718	100
719	100
720	100
721	100
722	100
723	100
724	100
725	100
726	100
727	100
728	100
729	100
730	100
731	100
732	100
733	100
734	100
735	100
736	100
737	100
738	100
739	100
740	100
741	100
742	100
743	100
744	100
745	100
746	100
747	100
748	100
749	100
750	100
751	100
752	100
753	100
754	100
755	100
756	100
757	100
758	100
759	100
760	100
761	100
762	100
763	100
764	100
765	100
766	100
767	100
768	100
769	100
770	100
771	100
772	100
773	100
774	100
775	100
776	100
777	100
778	100
779	100
780	100
781	100
782	100
783	100
784	100
785	100
786	100
787	100
788	100
789	100
790	100
791	100
792	100
793	100
794	100
795	100
796	100
797	100
798	100
799	100
800	100
801	100
802	100
803	100
804	100
805	100
806	125
807	125
808	125
809	125
810	125
811	125
812	125
813	125
814	125
815	125
816	125
817	125
818	125
819	125
820	125
821	125
822	125
823	125
824	125
825	125
826	125
827	125
828	125
829	125
830	125
831	125
832	125
833	125
834	125
835	125
836	125
837	125
838	125
839	125
840	125
841	125
842	125
843	125
844	125
845	125
846	125
847	125
848	125
849	125
850	125
851	125
852	125
853	125
854	125
855	125
856	125
857	125
858	125
859	125
860	125
861	125
862	125
863	125
864	125
865	125
866	125
867	125
868	125
869	125
870	125
871	125
872	125
873	125
874	125
875	125
876	125
877	125
878	125
879	125
880	125
881	125
882	125
883	125
884	125
885	125
886	125
887	125
888	125
889	125
890	125
891	125
892	125
893	125
894	125
895	125
896	125
897	125
898	125
899	125
900	125
901	125
902	125
903	125
904	125
905	125
906	125
907	125
908	125
909	125
910	125
911	125
912	125
913	125
914	125
915	125
916	125
917	125
918	125
919	125
920	125
921	125
922	125
923	125
924	125
925	125
926	125
927	125
928	125
929	125
930	125
931	125
932	125
933	125
934	125
935	125
936	125
937	125
938	125
939	125
940	125
941	125
942	125
943	125
944	125
945	125
946	125
947	125
948	125
949	125
950	125
951	125
952	125
953	125
954	125
955	125
956	125
957	125
958	125
959	125
960	125
961	125
962	125
963	125
964	125
965	125
966	125
967	157
968	157
969	157
970	157
971	157
972	157
973	157
974	157
975	157
976	157
977	157
978	157
979	157
980	157
981	157
982	157
983	157
984	157
985	157
986	157
987	157
988	157
989	157
990	157
991	157
992	157
993	157
994	157
995	157
996	157
997	157
998	157
999	157
1000	157
1001	157
1002	157
1003	157
1004	157
1005	157
1006	157
1007	157
1008	157
1009	157
1010	157
1011	157
1012	157
1013	157
1014	157
1015	157
1016	157
1017	157
1018	157
1019	157
1020	157
1021	157
1022	157
1023	157
1024	157
1025	157
1026	157
1027	157
1028	157
1029	157
1030	157
1031	157
1032	157
1033	157
1034	157
1035	157
1036	157
1037	157
1038	157
1039	157
1040	157
1041	157
1042	157
1043	157
1044	157
1045	157
1046	157
1047	157
1048	157
1049	157
1050	157
1051	157
1052	157
1053	157
1054	157
1055	157
1056	157
1057	157
1058	157
1059	157
1060	157
1061	157
1062	157
1063	157
1064	157
1065	157
1066	157
1067	157
1068	157
1069	157
1070	157
1071	157
1072	157
1073	157
1074	157
1075	157
1076	157
1077	157
1078	157
1079	157
1080	157
1081	157
1082	157
1083	157
1084	157
1085	157
1086	157
1087	157
1088	157
1089	157
1090	157
1091	157
1092	157
1093	157
1094	157
1095	157
1096	157
1097	157
1098	157
1099	157
1100	157
1101	157
1102	157
1103	157
1104	157
1105	157
1106	157
1107	157
1108	157
1109	157
1110	157
1111	157
1112	157
1113	157
1114	157
1115	157
1116	157
1117	157
1118	157
1119	157
1120	157
1121	157
1122	157
1123	157
1124	157
1125	157
1126	157
1127	157
1128	196
1129	196
1130	196
1131	196
1132	196
1133	196
1134	196
1135	196
1136	196
1137	196
1138	196
1139	196
1140	196
1141	196
1142	196
1143	196
1144	196
1145	196
1146	196
1147	196
1148	196
1149	196
1150	196
1151	196
1152	196
1153	196
1154	196
1155	196
1156	196
1157	196
1158	196
1159	196
1160	196
1161	196
1162	196
1163	196
1164	196
1165	196
1166	196
1167	196
1168	196
1169	196
1170	196
1171	196
1172	196
1173	196
1174	196
1175	196
1176	196
1177	196
1178	196
1179	196
1180	196
1181	196
1182	196
1183	196
1184	196
1185	196
1186	196
1187	196
1188	196
1189	196
1190	196
1191	196
1192	196
1193	196
1194	196
1195	196
1196	196
1197	196
1198	196
1199	196
1200	196
1201	196
1202	196
1203	196
1204	196
1205	196
1206	196
1207	196
1208	196
1209	196
1210	196
1211	196
1212	196
1213	196
1214	196
1215	196
1216	196
1217	196
1218	196
1219	196
1220	196
1221	196
1222	196
1223	196
1224	196
1225	196
1226	196
1227	196
1228	196
1229	196
1230	196
1231	196
1232	196
1233	196
1234	196
1235	196
1236	196
1237	196
1238	196
1239	196
1240	196
1241	196
1242	196
1243	196
1244	196
1245	196
1246	196
1247	196
1248	196
1249	196
1250	196
1251	196
1252	196
1253	196
1254	196
1255	196
1256	196
1257	196
1258	196
1259	196
1260	196
1261	196
1262	196
1263	196
1264	196
1265	196
1266	196
1267	196
1268	196
1269	196
1270	196
1271	196
1272	196
1273	196
1274	196
1275	196
1276	196
1277	196
1278	196
1279	196
1280	196
1281	196
1282	196
1283	196
1284	196
1285	196
1286	196
1287	196
1288	196
1289	245
1290	245
1291	245
1292	245
1293	245
1294	245
1295	245
1296	245
1297	245
1298	245
1299	245
1300	245
1301	245
1302	245
1303	245
1304	245
1305	245
1306	245
1307	245
1308	245
1309	245
1310	245
1311	245
1312	245
1313	245
1314	245
1315	245
1316	245
1317	245
1318	245
1319	245
1320	245
1321	245
1322	245
1323	245
1324	245
1325	245
1326	245
1327	245
1328	245
1329	245
1330	245
1331	245
1332	245
1333	245
1334	245
1335	245
1336	245
1337	245
1338	245
1339	245
1340	245
1341	245
1342	245
1343	245
1344	245
1345	245
1346	245
1347	245
1348	245
1349	245
1350	245
1351	245
1352	245
1353	245
1354	245
1355	245
1356	245
1357	245
1358	245
1359	245
1360	245
1361	245
1362	245
1363	245
1364	245
1365	245
1366	245
1367	245
1368	245
1369	245
1370	245
1371	245
1372	245
1373	245
1374	245
1375	245
1376	245
1377	245
1378	245
1379	245
1380	245
1381	245
1382	245
1383	245
1384	245
1385	245
1386	245
1387	245
1388	245
1389	245
1390	245
1391	245
1392	245
1393	245
1394	245
1395	245
1396	245
1397	245
1398	245
1399	245
1400	245
1401	245
1402	245
1403	245
1404	245
1405	245
1406	245
1407	245
1408	245
1409	245
1410	245
1411	245
1412	245
1413	245
1414	245
1415	245
1416	245
1417	245
1418	245
1419	245
1420	245
1421	245
1422	245
1423	245
1424	245
1425	245
1426	245
1427	245
1428	245
1429	245
1430	245
1431	245
1432	245
1433	245
1434	245
1435	245
1436	245
1437	245
1438	245
1439	245
1440	245
1441	245
1442	245
1443	245
1444	245
1445	245
1446	245
1447	245
1448	245
1449	245
DEPOT_SECTION
1
EOF
